CMD:
./solvers/bin/cadical --plain --no-reduce -t 1600 ./data/cnfs//oc8051gmb8addr/oc8051gmb8addr.90.cnf

c --- [ banner ] -------------------------------------------------------------
c 
c CaDiCaL SAT Solver
c Copyright (c) 2016-2024
c A. Biere, M. Fleury, N. Froleyks, K. Fazekas, F. Pollitt, T. Faller
c JKU Linz, University of Freiburg, TU Wien
c 
c Version 2.1.3 5296d3d2a9bf48c154ab2acb5e44625776d821bf
c g++ (Gentoo 12.3.1_p20230526 p2) 12.3.1 20230526 -Wall -Wextra -O3 -DNDEBUG
c Sat Aug 9 07:26:21 PDT 2025 Linux cedar2.int.cedar.computecanada.ca 5.14.0-362.24.2.el9_3.x86_64 x86_64
c 
c --- [ limit ] --------------------------------------------------------------
c 
c setting time limit to 1600 seconds real time (due to '-t 1600')
c 
c --- [ parsing input ] ------------------------------------------------------
c 
c reading DIMACS file from './data/cnfs//oc8051gmb8addr/oc8051gmb8addr.90.cnf'
c opening file to read './data/cnfs//oc8051gmb8addr/oc8051gmb8addr.90.cnf'
c found 'p cnf 1071859 3124326' header
c parsed 3124326 clauses in 0.57 seconds process time
c 
c --- [ options ] ------------------------------------------------------------
c 
c   --compact=false                (different from default 'true')
c   --decompose=false              (different from default 'true')
c   --deduplicate=false            (different from default 'true')
c   --elim=false                   (different from default 'true')
c   --probe=false                  (different from default 'true')
c   --reduce=false                 (different from default 'true')
c   --subsume=false                (different from default 'true')
c   --ternary=false                (different from default 'true')
c   --transred=false               (different from default 'true')
c   --vivify=false                 (different from default 'true')
c 
c --- [ solving ] ------------------------------------------------------------
c 
c time measured in process time since initialization
c 
c  seconds   reductions  redundant   irredundant
c          MB    restarts       trail        variables
c           level   conflicts       glue           remaining
c 
c *  0.57 471  0 0   0    0    0  0% 0 2884490 938466 88%
c {  0.74 480  0 0   0    0    0  0% 0 2884490 938466 88%
c i  0.75 480 117 0   0   22   14 13% 1 2884490 936596 87%
c i  0.75 480 105 0   0   24   15 13% 1 2884490 935303 87%
c i  0.75 480 90 0   0   27   15 13% 1 2884490 935153 87%
c i  1.71 486 89 0  56  765  693 18% 5 2884490 935124 87%
c }  1.85 486 77 0  72 1000  910 18% 5 2884490 935064 87%
c [  1.85 486  0 0  72 1000  910  0% 0 2884490 935064 87%
c O  2.05 486 279 0  72 1003  913 61% 84 2884490 935064 87%
c i  2.47 488 112 0  72 1557 1408 22% 10 2884490 935043 87%
c ]  8.86 491 123 0  73 3002 2610 37% 19 2884490 935033 87%
c {  8.86 491 77 0  73 3002 2610 18% 5 2884490 935033 87%
c F  8.86 491 76 0  74 3004 2612 18% 5 2884490 935033 87%
c i  8.87 491 75 0  77 3019 2616 18% 4 2884490 935017 87%
c i  9.49 492 66 0 144 3864 3387 18% 4 2884490 935001 87%
c i  9.97 492 60 0 241 4332 3829 18% 5 2884490 934865 87%
c i 10.28 492 56 0 307 4926 4372 18% 5 2884490 934808 87%
c # 11.02 492 51 0 432 6006 5376 17% 5 2884490 934808 87%
c } 11.61 492 48 0 547 7002 6279 17% 5 2884490 934808 87%
c [ 11.61 492 123 0 547 7002 6279 37% 19 2884490 934808 87%
c 
c  seconds    reductions   redundant    irredundant
c          MB     restarts        trail         variables
c            level    conflicts       glue            remaining
c 
c I 23.97 498 353 0 549 10007 8928 38% 53 2884490 934808 87%
c ] 38.57 504 392 0 552 15003 13473 41% 45 2884490 934808 87%
c { 38.57 504 48 0 552 15003 13473 17% 5 2884490 934808 87%
c B 38.59 504 48 0 554 15010 13476 17% 5 2884490 934808 87%
c W 44.00 502 46 0 1436 21014 18907 17% 6 2677983 934808 87%
c i 47.42 502 45 0 1962 24919 22486 17% 6 2677983 934790 87%
c i 50.06 502 43 0 2440 27232 24602 17% 6 2677983 934774 87%
c i 50.72 502 43 0 2588 27947 25248 17% 6 2677983 934718 87%
c F 50.84 502 43 0 2606 28015 25312 17% 6 2677983 934718 87%
c i 53.29 502 42 0 2986 30813 27719 17% 6 2677983 934701 87%
c } 53.46 502 42 0 3002 31006 27874 17% 6 2677983 934701 87%
c [ 53.46 502 392 0 3002 31006 27874 41% 45 2677983 934701 87%
c B 58.77 502 303 0 3004 36019 32635 36% 35 2677983 934701 87%
c i 88.19 502 354 0 3007 40077 35944 38% 47 2677983 934662 87%
c W 92.67 611 289 0 3009 45020 40073 34% 39 2677183 934624 87%
c O 100.20 611 211 0 3010 55021 48686 30% 30 2677183 934624 87%
c ] 105.00 611 168 0 3016 63007 55318 27% 26 2677183 934624 87%
c { 105.00 611 42 0 3016 63007 55318 17% 6 2677183 934624 87%
c i 107.90 611 41 0 3517 65241 57151 17% 7 2677183 934608 87%
c B 108.96 611 41 0 3662 66022 57861 17% 7 2677183 934608 87%
c 
c  seconds    reductions     redundant   irredundant
c           MB    restarts          trail        variables
c            level     conflicts        glue           remaining
c 
c i 112.54 611 40 0 4194 69228 60514 17% 7 2677183 934575 87%
c i 122.31 613 39 0 5336 77095 67156 17% 7 2677183 934569 87%
c i 122.38 613 39 0 5348 77208 67263 17% 7 2677183 934560 87%
c W 124.47 616 40 0 5385 78023 67864 17% 7 2676920 934560 87%
... skipped 12 lines ...
c i 167.41 616 35 0 8937 114219 96581 17% 8 2676920 934047 87%
c i 167.41 616 35 0 8937 114233 96593 17% 8 2676920 934046 87%
c i 167.41 616 35 0 8937 114238 96596 17% 8 2676920 934045 87%
c i 167.41 616 35 0 8937 114241 96598 17% 8 2676920 934044 87%
c 
c  seconds    reductions      redundant   irredundant
c           MB    restarts           trail        variables
c            level     conflicts         glue           remaining
c 
c i 167.41 616 35 0 8937 114246 96600 17% 8 2676920 934043 87%
c i 167.41 616 35 0 8937 114248 96601 17% 8 2676920 934042 87%
c i 167.41 616 35 0 8937 114252 96602 17% 8 2676920 934041 87%
c i 167.41 616 35 0 8937 114258 96606 17% 8 2676920 934040 87%
c i 167.41 616 35 0 8937 114259 96606 17% 8 2676920 934039 87%
c i 167.42 616 35 0 8937 114264 96605 17% 8 2676920 934038 87%
c i 167.42 616 35 0 8937 114288 96627 17% 8 2676920 934037 87%
c i 167.86 616 35 0 8954 114576 96884 17% 8 2676920 933955 87%
c W 174.84 617 35 0 9299 120032 78378 17% 8 2674086 933955 87%
c i 176.20 617 34 0 9373 121309 79231 17% 8 2674086 933710 87%
c i 178.83 617 35 0 9571 123598 81229 17% 8 2674086 933694 87%
c i 179.15 617 35 0 9581 123994 81589 17% 8 2674086 933693 87%
c i 179.15 617 35 0 9581 123995 81589 17% 8 2674086 933692 87%
c i 179.15 617 35 0 9581 123996 81589 17% 8 2674086 933681 87%
c i 179.15 617 35 0 9581 123999 81590 17% 8 2674086 933680 87%
c i 179.15 617 35 0 9581 124000 81590 17% 8 2674086 933679 87%
c i 179.15 617 35 0 9581 124001 81590 17% 8 2674086 933671 87%
c i 180.97 617 36 0 9673 125429 82786 17% 8 2674086 933661 87%
c i 180.97 617 36 0 9673 125431 82787 17% 8 2674086 933651 87%
c i 180.97 617 36 0 9673 125437 82790 17% 8 2674086 933650 87%
c 
c  seconds    reductions      redundant   irredundant
c           MB    restarts           trail        variables
c            level     conflicts         glue           remaining
c 
c } 182.66 617 36 0 9719 127007 84159 17% 8 2674086 933646 87%
c [ 182.66 617 168 0 9719 127007 84159 27% 26 2674086 933646 87%
c i 185.70 617 159 0 9720 129305 86201 26% 24 2674086 933630 87%
c B 194.97 617 136 0 9723 136034 91687 25% 22 2674086 933630 87%
c i 196.10 617 135 0 9724 136805 92349 25% 22 2674086 933574 87%
c i 196.53 617 134 0 9724 137082 92569 25% 22 2674086 933572 87%
c i 196.53 617 134 0 9724 137086 92572 25% 22 2674086 933570 87%
c i 214.82 617 134 0 9728 147578 101739 27% 20 2674086 933451 87%
c i 215.84 617 132 0 9728 148310 102225 26% 20 2674086 933412 87%
c i 223.08 617 124 0 9728 152953 106065 26% 19 2674086 931663 87%
c ] 223.10 617 124 0 9728 152986 106072 26% 19 2674086 908772 85%
c 0 223.10 617 124 0 9728 152986 106072 26% 19 2674086 908772 85%
c 
c --- [ result ] -------------------------------------------------------------
c 
s UNSATISFIABLE
c 
c --- [ run-time profiling ] -------------------------------------------------
c 
c process time taken by individual solving procedures
c (percentage relative to process time for solving)
c 
c       222.53  100.00% search
c       124.94   56.14% stable
c        93.54   42.03% unstable
c         3.89    1.75% walk
c         0.57    0.26% parse
c         0.17    0.07% lucky
c         0.00    0.00% simplify
c   =================================
c       222.53   99.74% solve
c 
c last line shows process time for solving
c (percentage relative to total process time)
c 
c --- [ statistics ] ---------------------------------------------------------
c 
c chronological:             46817        30.60 %  of conflicts
c conflicts:                152986       687.48    per second
c decisions:                575171      2584.66    per second
c fixed:                    163049        15.21 %  of all variables
c learned:                  146673        95.87 %  per conflict
c learned_lits:           11755324       100.00 %  learned literals
c minimized:                     0         0.00 %  learned literals
c shrunken:                1756746        14.94 %  learned literals
c minishrunken:            1808595        15.39 %  learned literals
c otfs:                        591         0.39 %  of conflict
c propagations:         1814013867         8.15 M  per second
c rephased:                     16      9561.62    interval
c restarts:                   9728        15.73    interval
c stabilizing:                   4        44.42 %  of conflicts
c subsumed:                  16842         0.56 %  of all clauses
c strengthened:                564         0.02 %  of all clauses
c walked:                        4     38246.50    interval
c 
c seconds are measured in process time for solving
c 
c --- [ resources ] ----------------------------------------------------------
c 
c total process time since initialization:       223.10    seconds
c total real time since initialization:          224.25    seconds
c maximum resident set size of process:          727.46    MB
c 
c --- [ shutting down ] ------------------------------------------------------
c 
c exit 20
